NAME : portcgen-15-100
COMMENT : portcgen N=15, seed=100
TYPE : TSP
DIMENSION : 15
EDGE_WEIGHT_TYPE : EUC_2D
NODE_COORD_SECTION
1 52 42
2 77 92
3 91 89
4 99 81
5 55 56
6 121 65
7 62 67
8 75 70
9 81 56
10 107 85
11 38 69
12 89 30
13 111 68
14 95 85
15 80 80
